(set-info :smt-lib-version 2.6)
(set-logic QF_NIA)
(set-info :source |
     Constraint systems stating that a matrix interpretation is
     compatible with a rewriting system (weakly compatible with
     all rules, strictly compatible with at least one).

     Contributed by Johannes Waldmann at HTKW Leipzig.
   |)
(set-info :category "crafted")
(set-info :status sat)
(declare-fun n0 () Int)
(assert (>= n0 0))
(declare-fun n1 () Int)
(assert (>= n1 0))
(assert (>= n1 1))
(declare-fun n2 () Int)
(assert (>= n2 0))
(declare-fun n3 () Int)
(assert (>= n3 0))
(assert (>= n3 1))
(declare-fun n4 () Int)
(assert (>= n4 0))
(declare-fun n5 () Int)
(assert (>= n5 0))
(assert (>= n5 1))
(declare-fun n6 () Int)
(assert (>= n6 0))
(declare-fun n7 () Int)
(assert (>= n7 0))
(assert (>= n7 1))
(declare-fun n8 () Int)
(assert (= n8 (* n3 n2)))
(declare-fun n9 () Int)
(assert (= n9 (+ n2 n8)))
(declare-fun n10 () Int)
(assert (= n10 (* n3 n3)))
(declare-fun n11 () Int)
(assert (= n11 (* n7 n0)))
(declare-fun n12 () Int)
(assert (= n12 (+ n6 n11)))
(declare-fun n13 () Int)
(assert (= n13 (* n7 n1)))
(declare-fun n14 () Int)
(assert (= n14 (* n7 n4)))
(declare-fun n15 () Int)
(assert (= n15 (+ n6 n14)))
(declare-fun n16 () Int)
(assert (= n16 (* n7 n5)))
(declare-fun n17 () Int)
(assert (= n17 (* n10 n2)))
(declare-fun n18 () Int)
(assert (= n18 (+ n9 n17)))
(declare-fun n19 () Int)
(assert (= n19 (* n10 n3)))
(declare-fun n20 () Int)
(assert (= n20 (* n3 n4)))
(declare-fun n21 () Int)
(assert (= n21 (+ n2 n20)))
(declare-fun n22 () Int)
(assert (= n22 (* n3 n5)))
(declare-fun n23 () Int)
(assert (= n23 (* n5 n0)))
(declare-fun n24 () Int)
(assert (= n24 (+ n4 n23)))
(declare-fun n25 () Int)
(assert (= n25 (* n5 n1)))
(declare-fun n26 () Int)
(assert (= n26 (* n5 n6)))
(declare-fun n27 () Int)
(assert (= n27 (+ n4 n26)))
(declare-fun n28 () Int)
(assert (= n28 (* n5 n7)))
(declare-fun n29 () Int)
(assert (= n29 (* n22 n0)))
(declare-fun n30 () Int)
(assert (= n30 (+ n21 n29)))
(declare-fun n31 () Int)
(assert (= n31 (* n22 n1)))
(declare-fun n32 () Int)
(assert (= n32 (* n1 n2)))
(declare-fun n33 () Int)
(assert (= n33 (+ n0 n32)))
(declare-fun n34 () Int)
(assert (= n34 (* n1 n3)))
(assert (>= n30 n33))
(assert (>= n31 n34))
(declare-fun n35 () Int)
(assert (= n35 (* n25 n4)))
(declare-fun n36 () Int)
(assert (= n36 (+ n24 n35)))
(declare-fun n37 () Int)
(assert (= n37 (* n25 n5)))
(assert (>= n18 n36))
(assert (>= n19 n37))
(assert (>= n27 n15))
(assert (>= n28 n16))
(declare-fun n38 () Int)
(assert (= n38 (* n28 n2)))
(declare-fun n39 () Int)
(assert (= n39 (+ n27 n38)))
(declare-fun n40 () Int)
(assert (= n40 (* n28 n3)))
(declare-fun n41 () Int)
(assert (= n41 (* n16 n4)))
(declare-fun n42 () Int)
(assert (= n42 (+ n15 n41)))
(declare-fun n43 () Int)
(assert (= n43 (* n16 n5)))
(assert (>= n39 n42))
(assert (>= n40 n43))
(assert (>= n15 n18))
(assert (>= n16 n19))
(declare-fun n44 () Int)
(assert (= n44 (* n5 n2)))
(declare-fun n45 () Int)
(assert (= n45 (+ n4 n44)))
(declare-fun n46 () Int)
(assert (= n46 (* n5 n3)))
(assert (>= n45 n12))
(assert (>= n46 n13))
(declare-fun n47 () Int)
(assert (= n47 (* n7 n21)))
(declare-fun n48 () Int)
(assert (= n48 (+ n6 n47)))
(declare-fun n49 () Int)
(assert (= n49 (* n7 n22)))
(declare-fun n50 () Int)
(assert (= n50 (* n1 n0)))
(declare-fun n51 () Int)
(assert (= n51 (+ n0 n50)))
(declare-fun n52 () Int)
(assert (= n52 (* n1 n1)))
(assert (>= n48 n51))
(assert (>= n49 n52))
(assert (>= n12 n2))
(assert (>= n13 n3))
(assert (or (> n30 n33) (> n18 n36) (> n27 n15) (> n39 n42) (> n15 n18) (> n45 n12) (> n48 n51) (> n12 n2)))
(assert (<= n0 100))
(assert (<= n1 100))
(assert (<= 0 n10))
(assert (<= n10 100))
(assert (<= 0 n11))
(assert (<= n11 100))
(assert (<= 0 n12))
(assert (<= n12 100))
(assert (<= 0 n13))
(assert (<= n13 100))
(assert (<= 0 n14))
(assert (<= n14 100))
(assert (<= 0 n15))
(assert (<= n15 100))
(assert (<= 0 n16))
(assert (<= n16 100))
(assert (<= 0 n17))
(assert (<= n17 100))
(assert (<= 0 n18))
(assert (<= n18 100))
(assert (<= 0 n19))
(assert (<= n19 100))
(assert (<= n2 100))
(assert (<= 0 n20))
(assert (<= n20 100))
(assert (<= 0 n21))
(assert (<= n21 100))
(assert (<= 0 n22))
(assert (<= n22 100))
(assert (<= 0 n23))
(assert (<= n23 100))
(assert (<= 0 n24))
(assert (<= n24 100))
(assert (<= 0 n25))
(assert (<= n25 100))
(assert (<= 0 n26))
(assert (<= n26 100))
(assert (<= 0 n27))
(assert (<= n27 100))
(assert (<= 0 n28))
(assert (<= n28 100))
(assert (<= 0 n29))
(assert (<= n29 100))
(assert (<= n3 100))
(assert (<= 0 n30))
(assert (<= n30 100))
(assert (<= 0 n31))
(assert (<= n31 100))
(assert (<= 0 n32))
(assert (<= n32 100))
(assert (<= 0 n33))
(assert (<= n33 100))
(assert (<= 0 n34))
(assert (<= n34 100))
(assert (<= 0 n35))
(assert (<= n35 100))
(assert (<= 0 n36))
(assert (<= n36 100))
(assert (<= 0 n37))
(assert (<= n37 100))
(assert (<= 0 n38))
(assert (<= n38 100))
(assert (<= 0 n39))
(assert (<= n39 100))
(assert (<= n4 100))
(assert (<= 0 n40))
(assert (<= n40 100))
(assert (<= 0 n41))
(assert (<= n41 100))
(assert (<= 0 n42))
(assert (<= n42 100))
(assert (<= 0 n43))
(assert (<= n43 100))
(assert (<= 0 n44))
(assert (<= n44 100))
(assert (<= 0 n45))
(assert (<= n45 100))
(assert (<= 0 n46))
(assert (<= n46 100))
(assert (<= 0 n47))
(assert (<= n47 100))
(assert (<= 0 n48))
(assert (<= n48 100))
(assert (<= 0 n49))
(assert (<= n49 100))
(assert (<= n5 100))
(assert (<= 0 n50))
(assert (<= n50 100))
(assert (<= 0 n51))
(assert (<= n51 100))
(assert (<= 0 n52))
(assert (<= n52 100))
(assert (<= n6 100))
(assert (<= n7 100))
(assert (<= 0 n8))
(assert (<= n8 100))
(assert (<= 0 n9))
(assert (<= n9 100))
(check-sat)
(exit)
